GPU_version/outputs/r106.out
Total number of lines in the file: 110
Total number of nodes including depot: 101
Customer 1: (35, 35), Demand: 0, Time Window: [0, 230], Service Time: 0
Customer 2: (41, 49), Demand: 10, Time Window: [0, 204], Service Time: 10
Customer 3: (35, 17), Demand: 7, Time Window: [0, 202], Service Time: 10
Customer 4: (55, 45), Demand: 13, Time Window: [0, 197], Service Time: 10
Customer 5: (55, 20), Demand: 19, Time Window: [139, 169], Service Time: 10
calling MST kernel
Post Processing Route
Post 2 opt Processing Route
2-opt between 11 and 13 improved cost from 2265.84 to 2265.18
Elapsed time: 0.668266 seconds
Final Route: 
Route #1: 27 28 53 58 
Route #2: 40 21 
Route #3: 73 72 74 75 
Route #4: 56 
Route #5: 39 67 4 
Route #6: 23 22 41 26 12 80 
Route #7: 68 77 3 
Route #8: 79 78 34 
Route #9: 33 81 9 
Route #10: 71 35 
Route #11: 65 51 
Route #12: 76 50 1 
Route #13: 69 29 24 
Route #14: 54 55 25 
Route #15: 13 94 
Route #16: 6 89 95 
Route #17: 97 
Route #18: 92 59 99 5 60 83 
Route #19: 8 46 82 7 
Route #20: 88 31 70 
Route #21: 30 20 66 
Route #22: 62 10 
Route #23: 90 32 
Route #24: 63 11 19 48 
Route #25: 47 36 49 
Route #26: 64 
Route #27: 45 18 52 
Route #28: 84 17 93 85 
Route #29: 61 16 
Route #30: 44 
Route #31: 14 38 86 91 96 37 100 98 
Route #32: 87 
Route #33: 42 2 57 
Route #34: 15 43 
Route #35: Total Distance: 2265.84
Final route is valid
