outputs/r106.txt.out
filename: R106
Vehicles: 25, Capacity: 200
Total customers : 101
No of routes: 32
Route #1: 27 53 58
Route #2: 40 26 12 80
Route #3: 54 55 25
Route #4: 68 77
Route #5: 76 50 1
Route #6: 69 34 78 79 3
Route #7: 33 81 9
Route #8: 71 35
Route #9: 65 51
Route #10: 29 24 21
Route #11: 73 74 72
Route #12: 41 22 75 56
Route #13: 23
Route #14: 39 67 4 13 94
Route #15: 95 97
Route #16: 92 59 99 5 84 17 60 83
Route #17: 8
Route #18: 45 82 7 88 31 70
Route #19: 30 20 66
Route #20: 62 10
Route #21: 90 32
Route #22: 63 11 19 48
Route #23: 47 36 49
Route #24: 64 46
Route #25: 52 18 85 93 96
Route #26: 61 16
Route #27: 44 38
Route #28: 14 86 91 100 37 98
Route #29: 87 57 2
Route #30: 15 43
Route #31: 42 6 89
Route #32: 28
Cost 2172
